NAME:  br17
TYPE: ATSP
COMMENT: 17 city problem (Repetto)
DIMENSION: 	16
EDGE_WEIGHT_TYPE: EXPLICIT
EDGE_WEIGHT_FORMAT: FULL_MATRIX 
EDGE_WEIGHT_SECTION
999	8	0	5	5	42	5	30	1	12	18	3	5	7	0	0
48	999	16	10	8	7	5	15	4	3	8	19	10	59	16	12
5	5	999	5	5	5	5	5	5	5	5	5	5	5	5	5
5	5	5	999	5	5	5	5	5	5	5	5	5	5	5	5
5	5	5	5	999	5	5	5	5	5	5	5	5	5	5	5
5	5	5	5	5	999	5	5	5	5	5	5	5	5	5	5	
5	5	5	5	5	5	999	5	5	5	5	5	5	5	5	5	
5	5	5	5	5	5	5	999	5	5	5	5	5	5	5	5
5	5	5	5	5	5	5	5	999	5	5	5	5	5	5	5
5	5	5	5	5	5	5	5	5	999	5	5	5	5	5	5
5	5	5	5	5	5	5	5	5	5	999	5	5	5	5	5
5	5	5	5	5	5	5	5	5	5	5	999	5	5	5	5
5	5	5	5	5	5	5	5	5	5	5	5	999	5	5	5
5	5	5	5	5	5	5	5	5	5	5	5	5	999	5	5
5	5	5	5	5	5	5	5	5	5	5	5	5	5	999	5
5	5	5	5	5	5	5	5	5	5	5	5	5	5	5	999